n_machines = 10;
n_resources = 15;
n_jobs = 75;
horizon = 3499;
LB = 349;
n_jobs_per_resource = [5, 5, 5, 5, 5, 5, 5, 5, 5, 5, 5, 5, 5, 5, 5];
duration = [39, 46, 87, 98, 36, 65, 96, 27, 12, 37, 21, 9, 71, 98, 54, 27, 48, 99, 40, 27, 24, 89, 40, 41, 12, 93, 68, 67, 35, 13, 17, 24, 83, 39, 77, 33, 14, 62, 67, 2, 53, 19, 34, 56, 4, 33, 94, 55, 95, 19, 35, 87, 14, 17, 69, 65, 38, 21, 99, 59, 16, 38, 58, 84, 74, 86, 15, 1, 12, 80, 13, 32, 3, 38, 46]